3 
4  57 
5  13 28 44 59 
6  15 29 44 59 
7  14 29 44 59 
8  14 29 44 59 
9  14 29 44 59 
10  14 30 45 
11  00 15 30 45 
12  00 15 30 45 
13  00 15 30 45 
14  00 15 30 45 
15  01 16 31 46 
16  01 16 31 46 
17  01 16 31 46 
18  01 18 38 53 
19  08 23 38 53 
20  08 25 39 54 
21  09 24 
22 
